c CNF file corresponding to a (partial) station packing problem.
p cnf 1882 229
1 2 3 4 5 6 7 8 9 10 11 12 13 14 0
-1 -2 0
-1 -3 0
-1 -4 0
-1 -5 0
-1 -6 0
-1 -7 0
-1 -8 0
-1 -9 0
-1 -10 0
-1 -11 0
-1 -12 0
-1 -13 0
-1 -14 0
-2 -3 0
-2 -4 0
-2 -5 0
-2 -6 0
-2 -7 0
-2 -8 0
-2 -9 0
-2 -10 0
-2 -11 0
-2 -12 0
-2 -13 0
-2 -14 0
-3 -4 0
-3 -5 0
-3 -6 0
-3 -7 0
-3 -8 0
-3 -9 0
-3 -10 0
-3 -11 0
-3 -12 0
-3 -13 0
-3 -14 0
-4 -5 0
-4 -6 0
-4 -7 0
-4 -8 0
-4 -9 0
-4 -10 0
-4 -11 0
-4 -12 0
-4 -13 0
-4 -14 0
-5 -6 0
-5 -7 0
-5 -8 0
-5 -9 0
-5 -10 0
-5 -11 0
-5 -12 0
-5 -13 0
-5 -14 0
-6 -7 0
-6 -8 0
-6 -9 0
-6 -10 0
-6 -11 0
-6 -12 0
-6 -13 0
-6 -14 0
-7 -8 0
-7 -9 0
-7 -10 0
-7 -11 0
-7 -12 0
-7 -13 0
-7 -14 0
-8 -9 0
-8 -10 0
-8 -11 0
-8 -12 0
-8 -13 0
-8 -14 0
-9 -10 0
-9 -11 0
-9 -12 0
-9 -13 0
-9 -14 0
-10 -11 0
-10 -12 0
-10 -13 0
-10 -14 0
-11 -12 0
-11 -13 0
-11 -14 0
-12 -13 0
-12 -14 0
-13 -14 0
1866 1867 1868 1869 1870 1871 1872 1873 1874 1875 1876 1877 1878 1879 1880 1881 1882 0
-1866 -1867 0
-1866 -1868 0
-1866 -1869 0
-1866 -1870 0
-1866 -1871 0
-1866 -1872 0
-1866 -1873 0
-1866 -1874 0
-1866 -1875 0
-1866 -1876 0
-1866 -1877 0
-1866 -1878 0
-1866 -1879 0
-1866 -1880 0
-1866 -1881 0
-1866 -1882 0
-1867 -1868 0
-1867 -1869 0
-1867 -1870 0
-1867 -1871 0
-1867 -1872 0
-1867 -1873 0
-1867 -1874 0
-1867 -1875 0
-1867 -1876 0
-1867 -1877 0
-1867 -1878 0
-1867 -1879 0
-1867 -1880 0
-1867 -1881 0
-1867 -1882 0
-1868 -1869 0
-1868 -1870 0
-1868 -1871 0
-1868 -1872 0
-1868 -1873 0
-1868 -1874 0
-1868 -1875 0
-1868 -1876 0
-1868 -1877 0
-1868 -1878 0
-1868 -1879 0
-1868 -1880 0
-1868 -1881 0
-1868 -1882 0
-1869 -1870 0
-1869 -1871 0
-1869 -1872 0
-1869 -1873 0
-1869 -1874 0
-1869 -1875 0
-1869 -1876 0
-1869 -1877 0
-1869 -1878 0
-1869 -1879 0
-1869 -1880 0
-1869 -1881 0
-1869 -1882 0
-1870 -1871 0
-1870 -1872 0
-1870 -1873 0
-1870 -1874 0
-1870 -1875 0
-1870 -1876 0
-1870 -1877 0
-1870 -1878 0
-1870 -1879 0
-1870 -1880 0
-1870 -1881 0
-1870 -1882 0
-1871 -1872 0
-1871 -1873 0
-1871 -1874 0
-1871 -1875 0
-1871 -1876 0
-1871 -1877 0
-1871 -1878 0
-1871 -1879 0
-1871 -1880 0
-1871 -1881 0
-1871 -1882 0
-1872 -1873 0
-1872 -1874 0
-1872 -1875 0
-1872 -1876 0
-1872 -1877 0
-1872 -1878 0
-1872 -1879 0
-1872 -1880 0
-1872 -1881 0
-1872 -1882 0
-1873 -1874 0
-1873 -1875 0
-1873 -1876 0
-1873 -1877 0
-1873 -1878 0
-1873 -1879 0
-1873 -1880 0
-1873 -1881 0
-1873 -1882 0
-1874 -1875 0
-1874 -1876 0
-1874 -1877 0
-1874 -1878 0
-1874 -1879 0
-1874 -1880 0
-1874 -1881 0
-1874 -1882 0
-1875 -1876 0
-1875 -1877 0
-1875 -1878 0
-1875 -1879 0
-1875 -1880 0
-1875 -1881 0
-1875 -1882 0
-1876 -1877 0
-1876 -1878 0
-1876 -1879 0
-1876 -1880 0
-1876 -1881 0
-1876 -1882 0
-1877 -1878 0
-1877 -1879 0
-1877 -1880 0
-1877 -1881 0
-1877 -1882 0
-1878 -1879 0
-1878 -1880 0
-1878 -1881 0
-1878 -1882 0
-1879 -1880 0
-1879 -1881 0
-1879 -1882 0
-1880 -1881 0
-1880 -1882 0
-1881 -1882 0
